Reproduction of the Original Problem/results-log/S2-5/S2-5-5-3-s.log
CPXPARAM_Read_DataCheck                          1
Found incumbent of value 0.000000 after 0.00 sec. (0.03 ticks)
Tried aggregator 1 time.
MIP Presolve modified 1 coefficients.
Reduced MIP has 216 rows, 1005 columns, and 5015 nonzeros.
Reduced MIP has 1005 binaries, 0 generals, 0 SOSs, and 0 indicators.
Presolve time = 0.00 sec. (2.15 ticks)
Probing time = 0.00 sec. (1.59 ticks)
Tried aggregator 1 time.
Reduced MIP has 216 rows, 1005 columns, and 5015 nonzeros.
Reduced MIP has 1005 binaries, 0 generals, 0 SOSs, and 0 indicators.
Presolve time = 0.00 sec. (2.53 ticks)
Probing time = 0.00 sec. (1.59 ticks)
Clique table members: 1200.
MIP emphasis: balance optimality and feasibility.
MIP search method: dynamic search.
Parallel mode: deterministic, using up to 4 threads.
Root relaxation solution time = 0.00 sec. (4.13 ticks)

        Nodes                                         Cuts/
   Node  Left     Objective  IInf  Best Integer    Best Bound    ItCnt     Gap

*     0+    0                            0.0000     6334.0000              --- 
*     0+    0                         1138.0000     6334.0000           456.59%
      0     0     2149.1417     7     1138.0000     2149.1417      311   88.85%
      0     0     1727.5166   229     1138.0000     Cuts: 154      522   51.80%
      0     0     1511.2747   341     1138.0000     Cuts: 154      773   32.80%
*     0+    0                         1439.0000     1511.2747             5.02%
      0     0        cutoff           1439.0000     1439.0000      919    0.00%
Elapsed time = 0.17 sec. (126.90 ticks, tree = 0.01 MB, solutions = 3)

Clique cuts applied:  266
Cover cuts applied:  6
Implied bound cuts applied:  5
Mixed integer rounding cuts applied:  11
Zero-half cuts applied:  2
Gomory fractional cuts applied:  1

Root node processing (before b&c):
  Real time             =    0.17 sec. (126.98 ticks)
Parallel b&c, 4 threads:
  Real time             =    0.00 sec. (0.00 ticks)
  Sync time (average)   =    0.00 sec.
  Wait time (average)   =    0.00 sec.
                          ------------
Total (root+branch&cut) =    0.17 sec. (126.98 ticks)
